000 000 000 000 000 -99 -99 000 -99 -99 -99 -99 000 000 -99 -99 -99 -99 000 000 000 000 -99 000 000 000 -99 -99 -99 -99 000
000 000 000 000 000 000 000 000 -99 -99 -99 -99 -99 -99 -99 -99 -99 -99 -99 000 000 000 000 000 000 000 000 -99 -99 -99 000
-99 000 000 000 000 000 000 000 000 -99 -99 -99 -99 -99 -99 -99 -99 -99 -99 -99 000 000 000 000 000 000 000 000 000 -99 -99
-99 000 000 000 000 000 000 000 000 000 -99 000 000 -99 -99 -99 -99 -99 -99 -99 -99 -99 -99 000 000 000 000 000 000 -99 -99
000 000 000 000 000 000 000 000 000 000 -99 000 000 000 -99 -99 -99 -99 -99 -99 000 000 -99 000 000 000 000 000 -99 -99 -99
000 000 000 000 000 000 000 000 000 000 -99 -99 000 000 -99 -99 -99 000 -99 -99 000 000 000 000 000 000 -99 000 -99 -99 -99
000 000 -99 000 000 000 000 000 000 000 -99 -99 000 000 -99 -99 000 000 -99 -99 000 000 000 000 000 000 -99 -99 -99 -99 -99
000 000 -99 000 000 -99 -99 000 000 -99 -99 -99 -99 000 -99 -99 000 000 -99 -99 -99 000 000 000 000 000 -99 -99 -99 000 -99
000 000 000 000 000 -99 -99 -99 000 000 000 000 -99 -99 -99 -99 000 000 000 -99 000 -99 000 000 000 000 -99 -99 -99 000 000
000 000 000 000 000 -99 -99 -99 -99 000 000 000 -99 -99 -99 -99 -99 000 000 000 000 -99 -99 -99 000 000 -99 -99 -99 000 000
000 000 000 000 000 -99 000 000 000 000 000 000 000 -99 -99 -99 -99 000 000 000 -99 -99 -99 000 000 000 -99 -99 000 000 000
000 000 000 000 -99 -99 000 000 000 000 000 000 000 -99 -99 -99 -99 000 000 000 -99 -99 -99 000 000 -99 000 000 000 000 000
000 000 000 000 000 000 000 000 000 000 000 000 000 -99 -99 -99 -99 000 000 000 -99 -99 -99 -99 000 000 000 000 000 000 -99
000 000 000 000 000 000 000 000 000 -99 000 000 -99 -99 -99 000 000 000 000 -99 -99 -99 -99 -99 000 000 000 -99 000 000 -99
000 000 000 000 000 000 000 000 000 -99 -99 -99 -99 000 -99 000 000 -99 -99 -99 -99 -99 -99 -99 000 000 000 -99 000 000 000
000 -99 000 000 000 000 000 000 000 000 -99 -99 -99 000 000 -99 -99 -99 -99 -99 -99 -99 -99 -99 000 000 000 -99 000 000 000
000 -99 -99 -99 000 000 000 000 000 000 -99 -99 -99 000 000 -99 000 -99 -99 -99 -99 -99 000 -99 -99 000 000 -99 -99 000 000
000 000 000 -99 -99 000 000 000 000 000 -99 -99 -99 000 000 000 000 000 -99 -99 -99 000 000 -99 -99 000 000 -99 -99 000 000
000 000 000 000 -99 -99 -99 000 000 000 -99 000 -99 000 000 000 000 000 -99 -99 -99 000 000 000 -99 -99 -99 -99 -99 000 000
000 000 000 000 -99 000 -99 000 000 000 000 000 -99 000 000 000 000 000 -99 -99 000 000 000 -99 -99 -99 -99 -99 -99 -99 -99
000 000 000 000 000 000 000 000 000 000 -99 -99 -99 -99 -99 000 000 000 -99 -99 000 000 000 -99 -99 -99 -99 -99 -99 -99 -99
000 000 000 000 000 000 000 000 000 000 -99 -99 -99 -99 -99 000 000 000 -99 000 000 000 000 -99 -99 -99 -99 -99 -99 -99 -99
000 000 000 000 000 000 000 000 000 000 -99 -99 -99 000 -99 000 000 000 -99 000 000 000 000 -99 -99 -99 -99 -99 -99 -99 -99
000 000 000 000 000 000 000 000 000 -99 -99 -99 000 000 000 000 000 000 -99 000 000 000 000 -99 -99 -99 -99 -99 -99 -99 -99
000 000 000 000 000 000 -99 000 000 -99 -99 -99 000 000 000 000 000 000 000 000 000 000 -99 -99 -99 -99 -99 -99 -99 -99 000
000 000 000 000 000 000 000 000 000 000 -99 -99 -99 000 000 000 000 000 000 000 000 -99 -99 -99 -99 -99 -99 -99 -99 000 000
000 000 -99 000 000 000 000 000 000 000 -99 -99 -99 -99 000 000 000 000 000 000 000 000 -99 -99 -99 -99 -99 -99 -99 000 000
000 000 -99 000 000 000 000 000 000 000 -99 -99 -99 -99 000 000 000 000 000 -99 -99 000 -99 -99 -99 -99 -99 -99 -99 -99 000
000 000 000 000 000 000 000 000 000 000 000 -99 -99 -99 000 000 000 000 000 -99 000 000 -99 -99 -99 -99 -99 -99 -99 -99 000
000 000 000 000 000 000 000 000 000 000 000 -99 -99 -99 000 000 000 000 000 000 000 000 -99 -99 -99 -99 -99 -99 -99 -99 -99
000 000 000 -99 000 000 000 000 000 000 000 -99 -99 -99 000 000 000 000 000 000 -99 000 -99 -99 -99 -99 -99 -99 -99 -99 -99
-99 000 000 000 000 000 000 000 000 000 -99 -99 -99 000 000 000 000 000 000 -99 000 000 000 000 000 000 -99 -99 -99 -99 -99
000 000 000 000 000 000 000 000 000 000 -99 -99 -99 -99 000 000 000 000 -99 -99 -99 000 000 000 000 000 -99 000 000 -99 -99
000 000 000 000 000 000 000 000 000 -99 -99 -99 -99 000 000 000 000 000 -99 -99 000 000 000 000 000 000 000 000 000 000 -99
-99 000 000 000 000 000 000 000 000 000 000 -99 000 -99 000 000 000 000 -99 -99 000 000 000 000 000 000 000 000 000 000 -99
000 000 000 000 000 -99 000 000 000 000 000 000 000 000 000 000 000 000 000 000 000 000 000 000 000 000 000 000 000 -99 -99
000 000 -99 000 000 -99 -99 000 000 000 000 000 000 000 000 000 000 000 000 000 000 000 000 000 000 000 000 -99 000 -99 -99
000 -99 -99 000 000 -99 -99 -99 -99 -99 -99 000 000 000 000 000 000 000 000 -99 000 000 -99 000 000 000 000 -99 -99 -99 -99
000 -99 000 000 000 -99 -99 -99 -99 -99 -99 -99 000 000 000 000 000 000 -99 000 000 -99 000 000 000 000 000 -99 -99 -99 -99
-99 -99 000 000 -99 -99 -99 -99 -99 -99 -99 000 000 000 000 000 000 000 -99 000 000 -99 000 000 000 000 -99 -99 -99 -99 -99
-99 -99 000 000 -99 -99 -99 -99 -99 -99 000 000 000 000 000 000 000 000 -99 000 000 -99 -99 -99 -99 000 000 -99 -99 -99 000
000 -99 -99 000 -99 -99 -99 -99 -99 -99 000 000 000 000 000 000 000 000 -99 000 000 -99 -99 -99 000 000 -99 -99 -99 000 000
000 000 -99 -99 -99 -99 -99 000 -99 -99 -99 000 000 -99 -99 000 000 000 000 000 000 -99 -99 000 000 000 -99 -99 -99 -99 -99
000 -99 -99 -99 -99 -99 000 000 -99 -99 000 000 000 000 000 000 -99 000 000 000 000 -99 -99 000 000 -99 -99 -99 -99 -99 -99
000 -99 -99 -99 -99 -99 000 000 -99 000 000 000 000 000 000 000 -99 -99 000 000 -99 -99 -99 000 000 -99 -99 -99 -99 -99 -99
000 000 000 000 000 000 -99 000 -99 000 000 000 000 000 000 -99 -99 000 000 000 -99 -99 000 000 -99 000 000 000 -99 -99 -99
000 000 000 000 000 000 -99 -99 -99 000 000 000 000 000 000 -99 -99 -99 000 000 -99 -99 000 000 -99 000 000 -99 -99 -99 -99
002 003 002 002 000 000 -99 -99 000 000 000 000 000 -99 -99 -99 -99 000 000 -99 -99 000 -99 000 -99 -99 -99 000 000 000 -99
018 016 007 006 001 000 000 000 001 001 001 000 000 000 -99 -99 -99 000 -99 -99 000 000 000 -99 -99 -99 -99 000 000 -99 -99
031 030 025 023 004 000 000 000 003 003 002 001 000 000 000 000 -99 000 -99 -99 000 000 -99 -99 -99 -99 -99 000 000 -99 -99
024 034 029 021 008 005 000 001 002 002 001 001 000 001 000 000 000 000 000 000 000 000 -99 -99 -99 -99 -99 -99 000 -99 -99
012 023 023 017 024 011 005 002 001 001 001 002 003 004 001 000 000 000 000 000 000 000 -99 -99 -99 -99 -99 -99 -99 -99 -99
001 005 012 018 033 018 007 002 000 001 004 002 002 005 002 001 000 000 000 000 000 000 -99 -99 -99 -99 -99 -99 -99 -99 -99
000 001 003 008 036 023 003 002 001 006 002 001 004 008 001 002 001 001 000 000 -99 -99 -99 -99 -99 -99 -99 -99 -99 -99 -99
000 000 003 012 031 007 004 001 001 002 001 001 004 004 000 001 001 000 000 -99 -99 -99 -99 -99 -99 -99 -99 -99 -99 -99 -99
